c   #vars: 64   #clauses: 240   #literals: 928
c 
p cnf 64 240
8 -25 -34 52 0
-13 18 -20 -38 0
4 23 -32 46 0
6 29 -53 -63 0
15 -31 35 54 0
6 -29 -53 63 0
20 59 -61 62 0
11 -16 -22 -55 0
12 -48 57 58 0
4 -23 32 46 0
36 -40 47 50 0
-12 -48 -57 58 0
-34 -38 -39 -56 0
-7 10 31 -43 0
-2 -27 28 39 0
7 8 47 -49 0
3 -25 44 -52 0
-32 48 62 0
34 -38 -39 56 0
-13 16 -53 0
4 11 -37 51 0
-3 -25 44 52 0
-4 11 -37 -51 0
-21 -26 42 -43 0
-5 -19 -21 60 0
4 11 37 -51 0
21 -26 42 43 0
4 -11 -37 -51 0
-22 -36 42 59 0
-4 11 37 51 0
-6 24 40 -45 0
9 12 -18 55 0
-21 26 42 43 0
7 8 -47 49 0
-10 -24 28 30 0
8 -25 34 -52 0
-8 -25 -34 -52 0
-9 -14 37 -44 0
-12 -48 57 -58 0
7 10 -31 -43 0
8 25 -34 -52 0
-6 -29 -53 -63 0
-11 -16 22 -55 0
-9 -12 -18 55 0
9 14 37 -44 0
11 16 -22 55 0
-10 24 -28 30 0
15 31 35 -54 0
-11 16 22 55 0
6 -24 40 -45 0
-6 24 -40 45 0
20 -59 -61 -62 0
-5 19 -21 -60 0
-6 29 -53 63 0
5 14 -15 63 0
1 41 -54 -64 0
-10 -24 -28 -30 0
9 -12 18 55 0
6 -29 53 -63 0
-34 38 39 -56 0
6 -24 -40 45 0
-9 14 -37 -44 0
1 -27 -29 0
22 36 42 59 0
-2 -3 57 61 0
20 -59 61 62 0
-35 -56 64 0
35 56 64 0
3 25 44 52 0
5 14 15 -63 0
13 18 -20 38 0
17 30 60 0
3 25 -44 -52 0
-7 -10 31 43 0
4 23 32 -46 0
-3 25 -44 52 0
-5 19 21 60 0
17 26 -33 -58 0
9 -12 -18 -55 0
6 24 -40 -45 0
-15 -31 -35 54 0
-17 26 -33 58 0
-36 -40 -47 50 0
-1 41 -54 64 0
7 -8 47 49 0
13 18 20 -38 0
19 -23 -49 0
7 -10 -31 43 0
-13 18 20 38 0
-19 -23 49 0
11 -16 22 55 0
-2 3 -57 61 0
5 -19 21 60 0
-4 23 32 46 0
-6 -29 53 63 0
36 40 -47 50 0
-2 3 57 -61 0
5 19 21 -60 0
-8 -25 34 52 0
3 -25 -44 52 0
17 26 33 58 0
-21 -26 -42 43 0
-7 10 -31 43 0
-4 -23 -32 46 0
-17 26 33 -58 0
-13 -18 20 -38 0
33 -41 -51 0
-9 14 37 44 0
-7 8 47 49 0
-7 8 -47 -49 0
1 -41 -54 64 0
7 -8 -47 -49 0
-2 27 28 -39 0
-20 -59 -61 62 0
-5 14 -15 -63 0
5 -14 -15 -63 0
-21 26 -42 -43 0
-45 46 -50 0
-15 -31 35 -54 0
6 24 40 45 0
-1 -27 29 0
11 16 22 -55 0
2 3 57 61 0
-11 16 -22 -55 0
-36 -40 47 -50 0
21 26 42 -43 0
-4 -11 37 -51 0
-9 -14 -37 44 0
-3 25 44 -52 0
9 12 18 -55 0
-9 12 18 55 0
12 48 -57 58 0
-22 -36 -42 -59 0
21 -26 -42 -43 0
-5 -19 21 -60 0
-11 -16 -22 55 0
-20 59 -61 -62 0
-5 14 15 63 0
10 -24 -28 30 0
4 -23 -32 -46 0
-10 24 28 -30 0
8 25 34 52 0
33 41 51 0
32 -48 62 0
-34 38 -39 56 0
1 27 29 0
36 -40 -47 -50 0
-36 40 47 50 0
20 59 61 -62 0
13 -16 -53 0
-4 -23 32 -46 0
10 -24 28 -30 0
6 29 53 63 0
-13 -16 53 0
15 -31 -35 -54 0
12 48 57 -58 0
-3 -25 -44 -52 0
-17 -30 60 0
7 10 31 43 0
35 -56 -64 0
-17 30 -60 0
17 -26 -33 58 0
10 24 -28 -30 0
-9 -12 18 -55 0
22 -36 -42 59 0
-45 -46 50 0
-6 29 53 -63 0
45 -46 -50 0
-5 -14 -15 63 0
-20 -59 61 -62 0
-4 -11 -37 51 0
34 38 39 56 0
-32 -48 -62 0
2 -3 57 -61 0
-15 31 -35 -54 0
-34 -38 39 56 0
13 -18 -20 -38 0
-7 -8 47 -49 0
-15 31 35 54 0
34 38 -39 -56 0
-7 -8 -47 49 0
1 41 54 64 0
7 -10 31 -43 0
-12 48 57 58 0
15 31 -35 54 0
-2 -3 -57 -61 0
-17 -26 -33 -58 0
-13 -18 -20 38 0
21 26 -42 43 0
-33 41 -51 0
-8 25 34 -52 0
17 -26 33 -58 0
5 -14 15 63 0
19 23 49 0
-22 36 42 -59 0
-33 -41 51 0
32 48 -62 0
9 -14 -37 -44 0
-9 12 -18 -55 0
2 -27 -28 39 0
-8 25 -34 52 0
-17 -26 33 58 0
17 -30 -60 0
2 3 -57 -61 0
36 40 47 -50 0
4 -11 37 51 0
12 -48 -57 -58 0
45 46 50 0
5 -19 -21 -60 0
-2 -27 -28 -39 0
-6 -24 40 45 0
-7 -10 -31 -43 0
10 24 28 30 0
22 -36 42 -59 0
-4 23 -32 -46 0
-19 23 -49 0
2 -3 -57 61 0
22 36 -42 -59 0
-20 59 61 62 0
13 -18 20 38 0
-1 27 -29 0
9 -14 37 44 0
-36 40 -47 -50 0
-2 27 -28 39 0
9 14 -37 44 0
2 -27 28 -39 0
-5 -14 15 -63 0
-35 56 -64 0
5 19 -21 60 0
-6 -24 -40 -45 0
34 -38 39 -56 0
13 16 53 0
-12 48 -57 -58 0
-22 36 -42 59 0
-1 41 54 -64 0
-1 -41 54 64 0
-1 -41 -54 -64 0
1 -41 54 -64 0
2 27 -28 -39 0
2 27 28 39 0
